benchmarks/R196_k40.lp
% benchmark R196_k40
% num of cables
#const k=40.
% num of 2-sided cables
#const b=20.

% atomic constraints
atomiccon(1,7).
atomiccon(1,29).
atomiccon(1,30).
atomiccon(1,38).
atomiccon(1,39).
atomiccon(2,7).
atomiccon(2,8).
atomiccon(2,9).
atomiccon(2,10).
atomiccon(2,29).
atomiccon(2,30).
atomiccon(2,31).
atomiccon(2,32).
atomiccon(2,38).
atomiccon(2,39).
atomiccon(2,40).
atomiccon(3,7).
atomiccon(3,8).
atomiccon(3,9).
atomiccon(3,10).
atomiccon(3,11).
atomiccon(3,29).
atomiccon(3,30).
atomiccon(3,31).
atomiccon(3,32).
atomiccon(3,33).
atomiccon(3,34).
atomiccon(3,38).
atomiccon(3,39).
atomiccon(3,40).
atomiccon(4,5).
atomiccon(4,6).
atomiccon(4,7).
atomiccon(4,8).
atomiccon(4,9).
atomiccon(4,10).
atomiccon(4,11).
atomiccon(4,29).
atomiccon(4,30).
atomiccon(4,31).
atomiccon(4,32).
atomiccon(4,33).
atomiccon(4,34).
atomiccon(4,35).
atomiccon(4,36).
atomiccon(4,38).
atomiccon(4,39).
atomiccon(4,40).
atomiccon(5,10).
atomiccon(5,11).
atomiccon(12,23).
atomiccon(13,6).
atomiccon(13,11).
atomiccon(14,5).
atomiccon(14,6).
atomiccon(14,9).
atomiccon(14,10).
atomiccon(14,11).
atomiccon(15,5).
atomiccon(15,6).
atomiccon(15,8).
atomiccon(15,9).
atomiccon(15,10).
atomiccon(15,11).
atomiccon(16,5).
atomiccon(16,6).
atomiccon(16,7).
atomiccon(16,8).
atomiccon(16,9).
atomiccon(16,10).
atomiccon(16,11).
atomiccon(17,5).
atomiccon(17,6).
atomiccon(17,7).
atomiccon(17,8).
atomiccon(17,9).
atomiccon(17,10).
atomiccon(17,11).
atomiccon(18,6).
atomiccon(18,23).
atomiccon(19,6).
atomiccon(19,11).
atomiccon(19,13).
atomiccon(19,23).
atomiccon(20,5).
atomiccon(20,6).
atomiccon(20,10).
atomiccon(20,11).
atomiccon(20,13).
atomiccon(21,5).
atomiccon(21,6).
atomiccon(21,9).
atomiccon(21,10).
atomiccon(21,11).
atomiccon(21,13).
atomiccon(21,14).
atomiccon(22,5).
atomiccon(22,6).
atomiccon(22,8).
atomiccon(22,9).
atomiccon(22,10).
atomiccon(22,11).
atomiccon(22,13).
atomiccon(22,14).
atomiccon(22,15).
atomiccon(25,5).
atomiccon(25,6).
atomiccon(25,7).
atomiccon(25,8).
atomiccon(25,9).
atomiccon(25,10).
atomiccon(25,11).
atomiccon(25,26).
atomiccon(25,27).
atomiccon(25,29).
atomiccon(25,30).
atomiccon(25,31).
atomiccon(25,32).
atomiccon(25,33).
atomiccon(25,34).
atomiccon(25,35).
atomiccon(25,36).
atomiccon(25,37).
atomiccon(25,38).
atomiccon(25,39).
atomiccon(25,40).
atomiccon(24,5).
atomiccon(24,6).
atomiccon(24,7).
atomiccon(24,8).
atomiccon(24,9).
atomiccon(24,10).
atomiccon(24,11).
atomiccon(24,25).
atomiccon(24,26).
atomiccon(24,27).
atomiccon(24,28).
atomiccon(24,29).
atomiccon(24,30).
atomiccon(24,31).
atomiccon(24,32).
atomiccon(24,33).
atomiccon(24,34).
atomiccon(24,35).
atomiccon(24,36).
atomiccon(24,37).
atomiccon(24,38).
atomiccon(24,39).
atomiccon(24,40).
atomiccon(26,5).
atomiccon(26,6).
atomiccon(26,7).
atomiccon(26,8).
atomiccon(26,9).
atomiccon(26,10).
atomiccon(26,11).
atomiccon(26,27).
atomiccon(26,29).
atomiccon(26,30).
atomiccon(26,31).
atomiccon(26,32).
atomiccon(26,33).
atomiccon(26,34).
atomiccon(26,35).
atomiccon(26,36).
atomiccon(26,37).
atomiccon(26,38).
atomiccon(26,39).
atomiccon(26,40).
atomiccon(27,5).
atomiccon(27,6).
atomiccon(27,7).
atomiccon(27,8).
atomiccon(27,9).
atomiccon(27,10).
atomiccon(27,11).
atomiccon(27,29).
atomiccon(27,30).
atomiccon(27,31).
atomiccon(27,32).
atomiccon(27,33).
atomiccon(27,34).
atomiccon(27,35).
atomiccon(27,36).
atomiccon(27,37).
atomiccon(27,38).
atomiccon(27,39).
atomiccon(27,40).
atomiccon(28,5).
atomiccon(28,6).
atomiccon(28,7).
atomiccon(28,8).
atomiccon(28,9).
atomiccon(28,10).
atomiccon(28,11).
atomiccon(28,25).
atomiccon(28,26).
atomiccon(28,27).
atomiccon(28,29).
atomiccon(28,30).
atomiccon(28,31).
atomiccon(28,32).
atomiccon(28,33).
atomiccon(28,34).
atomiccon(28,35).
atomiccon(28,36).
atomiccon(28,37).
atomiccon(28,38).
atomiccon(28,39).
atomiccon(28,40).
atomiccon(30,7).
atomiccon(30,8).
atomiccon(30,29).
atomiccon(30,38).
atomiccon(30,39).
atomiccon(30,40).
atomiccon(31,7).
atomiccon(31,8).
atomiccon(31,9).
atomiccon(31,38).
atomiccon(31,39).
atomiccon(31,40).
atomiccon(32,7).
atomiccon(32,8).
atomiccon(32,9).
atomiccon(32,10).
atomiccon(32,39).
atomiccon(32,40).
atomiccon(33,7).
atomiccon(33,8).
atomiccon(33,9).
atomiccon(33,10).
atomiccon(33,11).
atomiccon(33,40).
atomiccon(34,5).
atomiccon(34,7).
atomiccon(34,8).
atomiccon(34,9).
atomiccon(34,10).
atomiccon(34,11).
atomiccon(35,5).
atomiccon(35,6).
atomiccon(35,7).
atomiccon(35,8).
atomiccon(35,9).
atomiccon(35,10).
atomiccon(35,11).
atomiccon(36,5).
atomiccon(36,6).
atomiccon(36,7).
atomiccon(36,8).
atomiccon(36,9).
atomiccon(36,10).
atomiccon(36,11).
atomiccon(37,5).
atomiccon(37,6).
atomiccon(37,7).
atomiccon(37,8).
atomiccon(37,9).
atomiccon(37,10).
atomiccon(37,11).
atomiccon(38,7).
atomiccon(39,7).
atomiccon(39,8).
atomiccon(40,7).
atomiccon(40,8).
atomiccon(40,9).

% disjunctive constraints
discon(2,3,2,1).
discon(3,4,3,2).
discon(8,9,8,7).
discon(9,10,9,8).
discon(10,11,10,9).
discon(14,13,14,15).
discon(15,14,15,16).
discon(16,15,16,17).
discon(18,12,18,19).
discon(19,18,19,20).
discon(20,19,20,21).
discon(21,20,21,22).
discon(31,32,31,30).
discon(32,33,32,31).
discon(33,34,33,32).
discon(34,35,34,33).
discon(35,36,35,34).
discon(36,37,36,35).
discon(38,39,38,29).
discon(39,40,39,38).

% soft atomic constraints
softcon(2,1).
softcon(3,2).
softcon(4,3).
softcon(6,5).
softcon(8,7).
softcon(9,8).
softcon(10,9).
softcon(11,10).
softcon(23,13).
softcon(13,14).
softcon(14,15).
softcon(15,16).
softcon(16,17).
softcon(12,18).
softcon(18,19).
softcon(19,20).
softcon(20,21).
softcon(21,22).
softcon(38,29).
softcon(31,30).
softcon(32,31).
softcon(33,32).
softcon(34,33).
softcon(35,34).
softcon(36,35).
softcon(37,36).
softcon(39,38).
softcon(40,39).

% direct successor constraints

