benchmarks/minizinc/R196_k40.dzn
k = 40;
b = 20;
AtomicConstraints =  [|
1, 7|
	1, 29|
	1, 30|
	1, 38|
	1, 39|
	2, 7|
	2, 8|
	2, 9|
	2, 10|
	2, 29|
	2, 30|
	2, 31|
	2, 32|
	2, 38|
	2, 39|
	2, 40|
	3, 7|
	3, 8|
	3, 9|
	3, 10|
	3, 11|
	3, 29|
	3, 30|
	3, 31|
	3, 32|
	3, 33|
	3, 34|
	3, 38|
	3, 39|
	3, 40|
	4, 5|
	4, 6|
	4, 7|
	4, 8|
	4, 9|
	4, 10|
	4, 11|
	4, 29|
	4, 30|
	4, 31|
	4, 32|
	4, 33|
	4, 34|
	4, 35|
	4, 36|
	4, 38|
	4, 39|
	4, 40|
	5, 10|
	5, 11|
	12, 23|
	13, 6|
	13, 11|
	14, 5|
	14, 6|
	14, 9|
	14, 10|
	14, 11|
	15, 5|
	15, 6|
	15, 8|
	15, 9|
	15, 10|
	15, 11|
	16, 5|
	16, 6|
	16, 7|
	16, 8|
	16, 9|
	16, 10|
	16, 11|
	17, 5|
	17, 6|
	17, 7|
	17, 8|
	17, 9|
	17, 10|
	17, 11|
	18, 6|
	18, 23|
	19, 6|
	19, 11|
	19, 13|
	19, 23|
	20, 5|
	20, 6|
	20, 10|
	20, 11|
	20, 13|
	21, 5|
	21, 6|
	21, 9|
	21, 10|
	21, 11|
	21, 13|
	21, 14|
	22, 5|
	22, 6|
	22, 8|
	22, 9|
	22, 10|
	22, 11|
	22, 13|
	22, 14|
	22, 15|
	25, 5|
	25, 6|
	25, 7|
	25, 8|
	25, 9|
	25, 10|
	25, 11|
	25, 26|
	25, 27|
	25, 29|
	25, 30|
	25, 31|
	25, 32|
	25, 33|
	25, 34|
	25, 35|
	25, 36|
	25, 37|
	25, 38|
	25, 39|
	25, 40|
	24, 5|
	24, 6|
	24, 7|
	24, 8|
	24, 9|
	24, 10|
	24, 11|
	24, 25|
	24, 26|
	24, 27|
	24, 28|
	24, 29|
	24, 30|
	24, 31|
	24, 32|
	24, 33|
	24, 34|
	24, 35|
	24, 36|
	24, 37|
	24, 38|
	24, 39|
	24, 40|
	26, 5|
	26, 6|
	26, 7|
	26, 8|
	26, 9|
	26, 10|
	26, 11|
	26, 27|
	26, 29|
	26, 30|
	26, 31|
	26, 32|
	26, 33|
	26, 34|
	26, 35|
	26, 36|
	26, 37|
	26, 38|
	26, 39|
	26, 40|
	27, 5|
	27, 6|
	27, 7|
	27, 8|
	27, 9|
	27, 10|
	27, 11|
	27, 29|
	27, 30|
	27, 31|
	27, 32|
	27, 33|
	27, 34|
	27, 35|
	27, 36|
	27, 37|
	27, 38|
	27, 39|
	27, 40|
	28, 5|
	28, 6|
	28, 7|
	28, 8|
	28, 9|
	28, 10|
	28, 11|
	28, 25|
	28, 26|
	28, 27|
	28, 29|
	28, 30|
	28, 31|
	28, 32|
	28, 33|
	28, 34|
	28, 35|
	28, 36|
	28, 37|
	28, 38|
	28, 39|
	28, 40|
	30, 7|
	30, 8|
	30, 29|
	30, 38|
	30, 39|
	30, 40|
	31, 7|
	31, 8|
	31, 9|
	31, 38|
	31, 39|
	31, 40|
	32, 7|
	32, 8|
	32, 9|
	32, 10|
	32, 39|
	32, 40|
	33, 7|
	33, 8|
	33, 9|
	33, 10|
	33, 11|
	33, 40|
	34, 5|
	34, 7|
	34, 8|
	34, 9|
	34, 10|
	34, 11|
	35, 5|
	35, 6|
	35, 7|
	35, 8|
	35, 9|
	35, 10|
	35, 11|
	36, 5|
	36, 6|
	36, 7|
	36, 8|
	36, 9|
	36, 10|
	36, 11|
	37, 5|
	37, 6|
	37, 7|
	37, 8|
	37, 9|
	37, 10|
	37, 11|
	38, 7|
	39, 7|
	39, 8|
	40, 7|
	40, 8|
	40, 9|];
DisjunctiveConstraints =  [|
	2, 3, 2, 1|
	3, 4, 3, 2|
	8, 9, 8, 7|
	9, 10, 9, 8|
	10, 11, 10, 9|
	14, 13, 14, 15|
	15, 14, 15, 16|
	16, 15, 16, 17|
	18, 12, 18, 19|
	19, 18, 19, 20|
	20, 19, 20, 21|
	21, 20, 21, 22|
	31, 32, 31, 30|
	32, 33, 32, 31|
	33, 34, 33, 32|
	34, 35, 34, 33|
	35, 36, 35, 34|
	36, 37, 36, 35|
	38, 39, 38, 29|
	39, 40, 39, 38|];
SoftAtomicConstraints =  [|
2, 1|
3, 2|
4, 3|
6, 5|
8, 7|
9, 8|
10, 9|
11, 10|
23, 13|
13, 14|
14, 15|
15, 16|
16, 17|
12, 18|
18, 19|
19, 20|
20, 21|
21, 22|
38, 29|
31, 30|
32, 31|
33, 32|
34, 33|
35, 34|
36, 35|
37, 36|
39, 38|
40, 39|];
DirectSuccessors =  [];